letting n_nurses=25
letting n_days=7
letting n_shift_types=4
letting max_covers=10
letting t_covers=87
letting covers=[2,7,6,0,9,4,5,0,8,4,4,0,4,4,2,0,2,0,1,0,10,4,5,0,1,2,3,0]
letting prefes=[1,2,1,1,4,1,4,1,1,3,1,1,1,3,1,1,1,1,1,1,1,1,1,1,1,1,1,1,1,1,1,1,4,4,4,4,1,1,1,1,1,1,1,1,1,3,4,1,1,3,4,1,1,3,4,1,1,1,2,1,1,1,1,1,4,1,1,2,4,1,1,2,4,1,1,1,4,1,1,1,4,1,1,1,3,1,1,1,4,4,4,4,1,1,3,1,1,1,3,1,1,1,4,1,1,1,4,1,1,1,4,1,1,1,1,1,4,1,4,1,4,1,1,1,4,1,1,1,4,3,1,1,4,3,1,1,4,3,1,1,3,2,1,4,4,1,1,1,4,1,3,1,4,1,3,1,4,1,1,4,4,1,1,4,4,1,1,4,1,1,1,1,4,1,4,1,1,1,1,1,1,1,1,1,1,1,1,1,1,1,1,1,1,1,1,1,1,1,2,4,1,1,4,1,1,1,1,2,1,1,1,2,1,3,1,4,1,3,1,4,1,3,1,4,1,1,1,1,4,4,4,4,1,1,1,1,1,1,1,1,1,1,1,1,1,1,1,1,1,1,1,1,1,1,1,1,4,4,4,4,2,1,1,1,2,1,1,1,2,1,1,1,2,1,1,1,2,1,1,1,1,2,1,1,1,1,4,1,1,1,1,1,1,1,1,1,1,1,1,1,1,1,1,1,1,1,1,1,1,1,1,4,4,1,1,1,1,3,1,1,1,3,1,1,1,1,1,4,1,1,1,4,1,1,1,4,1,1,1,1,4,4,4,4,1,1,1,1,1,1,1,1,1,1,1,1,1,1,1,1,1,1,1,1,1,1,2,1,4,1,4,1,3,1,1,2,3,1,1,2,3,1,1,1,3,1,1,1,3,1,1,1,1,1,1,4,4,1,4,1,1,1,1,1,1,1,1,1,1,1,1,4,1,1,1,4,1,1,1,4,3,1,1,1,1,1,4,1,1,1,3,1,1,1,3,1,1,1,1,1,1,1,1,1,1,1,1,1,1,1,1,1,4,1,1,1,1,1,1,1,1,1,1,1,1,1,1,1,1,1,1,1,1,1,1,1,1,1,2,4,4,1,1,1,1,1,1,2,1,1,1,2,1,1,1,4,1,1,1,4,1,1,1,4,3,1,1,1,4,1,4,1,1,1,3,1,1,1,3,1,1,1,1,1,1,1,1,1,1,1,1,1,3,1,1,1,4,1,4,1,1,3,3,1,1,3,3,1,1,1,1,1,1,1,1,1,1,1,1,1,1,1,1,1,4,1,4,1,1,1,1,1,1,1,1,1,1,1,4,1,1,1,4,1,1,1,4,1,1,2,1,1,4,1,4,1,1,3,1,1,1,3,1,1,1,1,4,1,1,1,4,1,1,1,4,1,1,2,2,1,4,1,4,1,1,1,1,2,1,1,1,2,1,3,1,1,1,3,1,1,1,3,1,1,1,1,1,1,4,1,4,1,1,1,1,1,1,1,1,1,1,1,4,1,1,1,4,1,1,1,4,1,1,1,1,1,1,1,4,1,1,3,1,1,1,3,1,1,1,3,1,1,1,3,1,1,1,3,1,1]
letting ub =  194
